sssd18-08.py
Ipopt 3.12.8: 
==> Warning: Treating 168 binary and 0 integer variables as continous.


******************************************************************************
This program contains Ipopt, a library for large-scale nonlinear optimization.
 Ipopt is released as open source code under the Eclipse Public License (EPL).
         For more information visit http://projects.coin-or.org/Ipopt
******************************************************************************

This is Ipopt version 3.12.8, running with linear solver ma27.

Number of nonzeros in equality constraint Jacobian...:      312
Number of nonzeros in inequality constraint Jacobian.:      120
Number of nonzeros in Lagrangian Hessian.............:        8

Total number of variables............................:      200
                     variables with only lower bounds:       32
                variables with lower and upper bounds:      168
                     variables with only upper bounds:        0
Total number of equality constraints.................:       26
Total number of inequality constraints...............:       56
        inequality constraints with only lower bounds:        0
   inequality constraints with lower and upper bounds:        0
        inequality constraints with only upper bounds:       56

iter    objective    inf_pr   inf_du lg(mu)  ||d||  lg(rg) alpha_du alpha_pr  ls
   0  8.7716035e+03 9.20e-01 2.88e+01  -1.0 0.00e+00    -  0.00e+00 0.00e+00   0
   1  9.1669081e+03 8.92e-01 2.74e+01  -1.0 6.16e-01    -  4.28e-02 3.07e-02f  1
   2  2.6655800e+04 8.18e-01 2.88e+01  -1.0 9.22e-01    -  4.64e-02 8.28e-02h  1
   3  6.1675521e+04 6.72e-01 1.89e+01  -1.0 9.81e-01    -  3.11e-01 1.78e-01h  1
   4  1.7783803e+05 2.33e-01 2.37e+01  -1.0 8.47e-01    -  3.23e-01 6.53e-01h  1
   5  2.5992954e+05 3.33e-02 3.61e+00  -1.0 2.92e-01    -  1.00e+00 8.58e-01h  1
   6  2.8323833e+05 8.88e-16 1.90e-01  -1.0 4.68e-02    -  1.00e+00 1.00e+00h  1
   7  2.8080748e+05 3.17e-05 7.90e-01  -2.5 9.43e-02    -  6.58e-01 9.75e-01f  1
   8  2.7956444e+05 8.88e-16 5.69e-01  -2.5 4.01e-01    -  5.37e-01 1.00e+00f  1
   9  2.7882598e+05 6.66e-16 2.10e-01  -2.5 4.07e-01    -  6.51e-01 9.42e-01f  1
iter    objective    inf_pr   inf_du lg(mu)  ||d||  lg(rg) alpha_du alpha_pr  ls
  10  2.7857245e+05 8.88e-16 1.15e-02  -2.5 2.79e-01    -  9.51e-01 8.61e-01f  1
  11  2.7825418e+05 2.89e-15 2.90e-02  -3.8 3.94e-01    -  4.12e-01 6.89e-01f  1
  12  2.7814073e+05 1.33e-15 1.05e-02  -3.8 7.76e-01    -  7.62e-01 6.40e-01f  1
  13  2.7809057e+05 4.44e-16 7.20e-03  -3.8 2.77e-01    -  6.49e-01 7.52e-01f  1
  14  2.7807284e+05 4.44e-16 2.05e-05  -3.8 1.67e-01    -  1.00e+00 1.00e+00f  1
  15  2.7805250e+05 4.44e-16 1.27e-02  -5.7 1.06e-01    -  5.26e-01 7.95e-01f  1
  16  2.7804718e+05 4.44e-16 4.50e-03  -5.7 6.21e-02    -  7.29e-01 9.23e-01f  1
  17  2.7804662e+05 1.11e-15 2.11e-04  -5.7 2.00e-02    -  9.05e-01 1.00e+00f  1
  18  2.7804661e+05 8.88e-16 2.75e-10  -5.7 3.50e-02    -  1.00e+00 1.00e+00h  1
  19  2.7804628e+05 1.11e-15 2.16e-05  -8.6 1.74e-02    -  8.67e-01 9.95e-01f  1
iter    objective    inf_pr   inf_du lg(mu)  ||d||  lg(rg) alpha_du alpha_pr  ls
  20  2.7804628e+05 1.33e-15 4.65e-05  -8.6 2.15e-03    -  1.00e+00 9.76e-01f  1
  21  2.7804628e+05 1.55e-15 8.04e-03  -8.6 3.48e-05    -  1.83e-02 1.00e+00f  1
  22  2.7804628e+05 8.88e-16 3.86e-14  -8.6 3.43e-06    -  1.00e+00 1.00e+00h  1

Number of Iterations....: 22

                                   (scaled)                 (unscaled)
Objective...............:   2.7458788745852758e+02    2.7804627710070572e+05
Dual infeasibility......:   3.8633324683964609e-14    3.9119905105142540e-11
Constraint violation....:   8.8817841970012523e-16    8.8817841970012523e-16
Complementarity.........:   2.7520446147796729e-09    2.7867061676932316e-06
Overall NLP error.......:   2.7520446147796729e-09    2.7867061676932316e-06


Number of objective function evaluations             = 23
Number of objective gradient evaluations             = 23
Number of equality constraint evaluations            = 23
Number of inequality constraint evaluations          = 23
Number of equality constraint Jacobian evaluations   = 23
Number of inequality constraint Jacobian evaluations = 23
Number of Lagrangian Hessian evaluations             = 22
Total CPU secs in IPOPT (w/o function evaluations)   =      0.016
Total CPU secs in NLP function evaluations           =      0.000

EXIT: Optimal Solution Found.

Time elapsed: 0.150833845139